; --------------------------------------------------------------------------
; File     : KGC704-1.smt2
; Domain   : ODRL Policy / KB Grounding Concept-valued
; Axioms   : Theorem 5 (and): partial operand overlap [GeoNames+BCP47+DPV]
; Version  : 1.0
; Authors  : Mustafa, D. & Sutcliffe, G.
; Refs     : [Mus+26b] Mustafa, D., Collarana, D., Lange, C., Peng, Y., Haque, R., Quix, C., Decker, S. Denotational Semantics for ODRL: Knowledge-Based Constraint Conflict Detection. 2026. arXiv:2602.19883. https://arxiv.org/abs/2602.19883
; Source   : Mustafa, D. (2026)
; Names    : KGC704-1.smt2
; Status   : unsat
; Verdict  : AndConflict
; Comments : Verdict: AndConflict  Category: Composition  Difficulty: Medium
; --------------------------------------------------------------------------

(set-logic UF)
(declare-sort Concept 0)
(declare-fun bcp_de () Concept)
(declare-fun bcp_fr () Concept)
(declare-fun kge_leq      (Concept Concept) Bool)
(declare-fun kge_disjoint (Concept Concept) Bool)
; KGE000 load-bearing axioms.
(assert (forall ((c Concept)) (kge_leq c c)))
(assert (forall ((a Concept) (b Concept) (c Concept))
    (=> (and (kge_leq a b) (kge_leq b c)) (kge_leq a c))))
(assert (forall ((a Concept) (b Concept))
    (=> (kge_disjoint a b) (kge_disjoint b a))))
(assert (forall ((c Concept)) (not (kge_disjoint c c))))
(assert (forall ((a Concept) (b Concept) (z Concept))
    (=> (and (kge_disjoint a b) (kge_leq z a) (kge_leq z b))
        false)))
; BCP47: de disjoint fr (registry uniqueness).
(assert (kge_disjoint bcp_de bcp_fr))
(assert (distinct bcp_de bcp_fr))
;
; Shared-operand Conflict: x cannot be both bcp_de and bcp_fr.
(declare-fun x () Concept)
(assert (= x bcp_de))
(assert (= x bcp_fr))
(check-sat)
(exit)
